<?xml version = "1.0" standalone="yes"?>
<!-- This file has been generated by DOcplex version 2.23.222  -->
<CPLEXSolution version="1.0">
 <header
   problemName="CVRP"
   objectiveValue="10361.9"
  />
 <variables>
  <variable name="x_0_1" index="0" value="1.00000"/>
  <variable name="x_0_2" index="1" value="1.00000"/>
  <variable name="x_0_3" index="2" value="1.00000"/>
  <variable name="x_0_5" index="4" value="1.00000"/>
  <variable name="x_0_6" index="5" value="1.00000"/>
  <variable name="x_0_7" index="6" value="1.00000"/>
  <variable name="x_0_8" index="7" value="1.00000"/>
  <variable name="x_0_9" index="8" value="1.00000"/>
  <variable name="x_0_15" index="14" value="1.00000"/>
  <variable name="x_1_10" index="24" value="1.00000"/>
  <variable name="x_2_0" index="30" value="1.00000"/>
  <variable name="x_3_13" index="57" value="1.00000"/>
  <variable name="x_4_0" index="60" value="1.00000"/>
  <variable name="x_5_12" index="86" value="1.00000"/>
  <variable name="x_6_14" index="103" value="1.00000"/>
  <variable name="x_7_0" index="105" value="1.00000"/>
  <variable name="x_8_11" index="130" value="1.00000"/>
  <variable name="x_9_0" index="135" value="1.00000"/>
  <variable name="x_10_0" index="150" value="1.00000"/>
  <variable name="x_11_0" index="165" value="1.00000"/>
  <variable name="x_12_0" index="180" value="1.00000"/>
  <variable name="x_13_0" index="195" value="1.00000"/>
  <variable name="x_14_0" index="210" value="1.00000"/>
  <variable name="x_15_4" index="229" value="1.00000"/>
  <variable name="u_1" index="240" value="6.00000"/>
  <variable name="u_2" index="241" value="22.00000"/>
  <variable name="u_3" index="242" value="6.00000"/>
  <variable name="u_4" index="243" value="23.00000"/>
  <variable name="u_5" index="244" value="5.00000"/>
  <variable name="u_6" index="245" value="10.00000"/>
  <variable name="u_7" index="246" value="18.00000"/>
  <variable name="u_8" index="247" value="18.00000"/>
  <variable name="u_9" index="248" value="23.00000"/>
  <variable name="u_10" index="249" value="22.00000"/>
  <variable name="u_11" index="250" value="21.00000"/>
  <variable name="u_12" index="251" value="17.00000"/>
  <variable name="u_13" index="252" value="18.00000"/>
  <variable name="u_14" index="253" value="18.00000"/>
  <variable name="u_15" index="254" value="16.00000"/>
 </variables>
</CPLEXSolution>
